
  26    0


   0  12 2 3 4 5 6 7 11 12 22 23 24 25 
   4   6 21 19 18 17 16 10 
   3   4 19 18 15 14 
   9   3 17 14 9 
   6   2 16 8 
   5   2 14 13 
   3   1 8 
   8   1 13 
   2   1 15 
   4   1 13 
   9   1 20 
   1   1 13 
   8   1 26
   4   1 26
   6   1 26
   6   1 26
   4   1 26
   5   1 26
   7   1 26
   7   1 26
   1   1 26
   7   1 26
   3   1 26
   8   1 26
   7   1 26
   0   0 
